NAME: cuum510.tsp
TYPE: TSP
COMMENT: User-generated TSP file
DIMENSION: 510
EDGE_WEIGHT_TYPE: EUC_2D
NODE_COORD_SECTION
1 144.0 309.0
2 313.0 121.0
3 173.0 249.0
4 76.0 273.0
5 343.0 45.0
6 253.0 293.0
7 347.0 187.0
8 285.0 311.0
9 262.0 326.0
10 154.0 339.0
11 462.0 194.0
12 344.0 158.0
13 397.0 430.0
14 505.0 259.0
15 380.0 98.0
16 362.0 110.0
17 148.0 22.0
18 22.0 433.0
19 308.0 33.0
20 142.0 461.0
21 228.0 374.0
22 21.0 396.0
23 75.0 499.0
24 252.0 28.0
25 254.0 287.0
26 13.0 215.0
27 145.0 213.0
28 478.0 112.0
29 79.0 447.0
30 304.0 360.0
31 499.0 82.0
32 127.0 505.0
33 29.0 4.0
34 218.0 463.0
35 138.0 300.0
36 19.0 439.0
37 461.0 455.0
38 467.0 379.0
39 160.0 124.0
40 78.0 62.0
41 67.0 257.0
42 186.0 300.0
43 390.0 308.0
44 96.0 20.0
45 58.0 301.0
46 95.0 244.0
47 371.0 7.0
48 504.0 465.0
49 230.0 44.0
50 276.0 382.0
51 411.0 4.0
52 443.0 13.0
53 419.0 134.0
54 140.0 189.0
55 268.0 77.0
56 325.0 434.0
57 499.0 282.0
58 418.0 463.0
59 505.0 345.0
60 138.0 482.0
61 28.0 454.0
62 54.0 28.0
63 402.0 288.0
64 74.0 81.0
65 286.0 460.0
66 302.0 341.0
67 332.0 288.0
68 390.0 295.0
69 145.0 492.0
70 289.0 343.0
71 429.0 265.0
72 418.0 44.0
73 146.0 127.0
74 262.0 357.0
75 2.0 107.0
76 471.0 198.0
77 284.0 183.0
78 14.0 235.0
79 265.0 65.0
80 414.0 417.0
81 82.0 436.0
82 501.0 42.0
83 46.0 160.0
84 418.0 445.0
85 110.0 1.0
86 370.0 74.0
87 83.0 122.0
88 443.0 35.0
89 65.0 354.0
90 322.0 90.0
91 290.0 7.0
92 100.0 67.0
93 72.0 57.0
94 172.0 61.0
95 497.0 281.0
96 167.0 198.0
97 95.0 138.0
98 148.0 114.0
99 79.0 234.0
100 186.0 470.0
101 291.0 270.0
102 341.0 164.0
103 182.0 363.0
104 57.0 224.0
105 195.0 282.0
106 431.0 419.0
107 113.0 12.0
108 468.0 299.0
109 280.0 483.0
110 473.0 92.0
111 21.0 377.0
112 429.0 237.0
113 371.0 230.0
114 462.0 433.0
115 423.0 186.0
116 191.0 445.0
117 6.0 132.0
118 57.0 475.0
119 390.0 478.0
120 99.0 160.0
121 200.0 170.0
122 255.0 359.0
123 327.0 97.0
124 232.0 35.0
125 465.0 240.0
126 67.0 386.0
127 149.0 57.0
128 211.0 270.0
129 171.0 65.0
130 384.0 9.0
131 11.0 456.0
132 431.0 228.0
133 478.0 502.0
134 4.0 9.0
135 80.0 222.0
136 410.0 359.0
137 345.0 250.0
138 202.0 405.0
139 373.0 261.0
140 510.0 118.0
141 150.0 495.0
142 388.0 96.0
143 199.0 202.0
144 260.0 377.0
145 91.0 252.0
146 123.0 321.0
147 236.0 496.0
148 320.0 468.0
149 112.0 479.0
150 157.0 191.0
151 482.0 350.0
152 194.0 390.0
153 155.0 463.0
154 295.0 286.0
155 313.0 26.0
156 257.0 153.0
157 343.0 164.0
158 494.0 248.0
159 418.0 311.0
160 241.0 39.0
161 188.0 299.0
162 361.0 277.0
163 400.0 182.0
164 68.0 245.0
165 73.0 9.0
166 309.0 359.0
167 377.0 15.0
168 129.0 27.0
169 327.0 37.0
170 39.0 8.0
171 473.0 440.0
172 267.0 403.0
173 105.0 74.0
174 299.0 385.0
175 267.0 147.0
176 142.0 39.0
177 46.0 499.0
178 15.0 119.0
179 1.0 464.0
180 337.0 8.0
181 431.0 452.0
182 76.0 301.0
183 15.0 76.0
184 57.0 357.0
185 183.0 377.0
186 429.0 100.0
187 94.0 156.0
188 37.0 195.0
189 333.0 27.0
190 132.0 462.0
191 54.0 319.0
192 406.0 84.0
193 452.0 49.0
194 325.0 350.0
195 166.0 60.0
196 316.0 341.0
197 388.0 173.0
198 30.0 425.0
199 295.0 187.0
200 106.0 19.0
201 111.0 291.0
202 272.0 271.0
203 508.0 106.0
204 356.0 168.0
205 392.0 393.0
206 163.0 367.0
207 113.0 134.0
208 485.0 491.0
209 321.0 61.0
210 83.0 146.0
211 467.0 199.0
212 427.0 93.0
213 308.0 262.0
214 479.0 214.0
215 509.0 440.0
216 234.0 259.0
217 51.0 265.0
218 288.0 35.0
219 413.0 458.0
220 332.0 482.0
221 198.0 97.0
222 364.0 120.0
223 396.0 282.0
224 82.0 273.0
225 472.0 324.0
226 126.0 127.0
227 376.0 258.0
228 442.0 468.0
229 367.0 364.0
230 244.0 307.0
231 191.0 192.0
232 134.0 146.0
233 258.0 455.0
234 306.0 86.0
235 468.0 223.0
236 117.0 247.0
237 79.0 19.0
238 425.0 196.0
239 211.0 339.0
240 397.0 320.0
241 128.0 254.0
242 90.0 442.0
243 482.0 44.0
244 51.0 25.0
245 509.0 209.0
246 231.0 504.0
247 195.0 168.0
248 491.0 240.0
249 291.0 150.0
250 247.0 143.0
251 331.0 202.0
252 291.0 450.0
253 146.0 463.0
254 175.0 505.0
255 306.0 36.0
256 505.0 379.0
257 13.0 250.0
258 371.0 432.0
259 265.0 292.0
260 351.0 428.0
261 24.0 306.0
262 415.0 344.0
263 20.0 44.0
264 331.0 7.0
265 21.0 132.0
266 86.0 109.0
267 242.0 132.0
268 445.0 76.0
269 55.0 409.0
270 357.0 285.0
271 129.0 122.0
272 145.0 474.0
273 6.0 98.0
274 423.0 217.0
275 127.0 417.0
276 83.0 66.0
277 106.0 6.0
278 458.0 352.0
279 26.0 93.0
280 211.0 485.0
281 505.0 326.0
282 358.0 299.0
283 370.0 247.0
284 314.0 494.0
285 282.0 471.0
286 195.0 96.0
287 119.0 391.0
288 76.0 382.0
289 14.0 373.0
290 152.0 232.0
291 180.0 336.0
292 484.0 123.0
293 122.0 455.0
294 415.0 303.0
295 297.0 459.0
296 113.0 453.0
297 352.0 100.0
298 285.0 24.0
299 301.0 275.0
300 277.0 250.0
301 328.0 44.0
302 123.0 405.0
303 292.0 419.0
304 32.0 361.0
305 430.0 110.0
306 17.0 300.0
307 121.0 391.0
308 21.0 156.0
309 328.0 455.0
310 388.0 130.0
311 385.0 54.0
312 341.0 411.0
313 425.0 82.0
314 345.0 196.0
315 228.0 312.0
316 55.0 273.0
317 491.0 325.0
318 269.0 121.0
319 453.0 15.0
320 500.0 276.0
321 372.0 226.0
322 245.0 382.0
323 97.0 378.0
324 33.0 70.0
325 51.0 343.0
326 140.0 199.0
327 268.0 223.0
328 37.0 78.0
329 146.0 312.0
330 114.0 459.0
331 210.0 29.0
332 414.0 414.0
333 218.0 103.0
334 431.0 312.0
335 247.0 128.0
336 119.0 363.0
337 8.0 479.0
338 59.0 261.0
339 92.0 362.0
340 259.0 382.0
341 165.0 357.0
342 111.0 434.0
343 493.0 87.0
344 236.0 336.0
345 291.0 494.0
346 215.0 477.0
347 251.0 71.0
348 412.0 285.0
349 305.0 203.0
350 303.0 328.0
351 7.0 237.0
352 279.0 38.0
353 126.0 180.0
354 132.0 15.0
355 289.0 19.0
356 38.0 113.0
357 168.0 476.0
358 234.0 259.0
359 449.0 205.0
360 215.0 170.0
361 358.0 216.0
362 219.0 198.0
363 55.0 119.0
364 323.0 359.0
365 278.0 146.0
366 365.0 488.0
367 293.0 498.0
368 83.0 368.0
369 126.0 91.0
370 463.0 496.0
371 474.0 339.0
372 164.0 109.0
373 324.0 223.0
374 298.0 452.0
375 484.0 74.0
376 344.0 116.0
377 61.0 422.0
378 167.0 26.0
379 400.0 386.0
380 365.0 380.0
381 49.0 249.0
382 298.0 301.0
383 93.0 480.0
384 241.0 298.0
385 271.0 268.0
386 443.0 194.0
387 99.0 234.0
388 342.0 209.0
389 52.0 327.0
390 416.0 132.0
391 271.0 348.0
392 357.0 117.0
393 307.0 431.0
394 92.0 443.0
395 274.0 273.0
396 205.0 80.0
397 357.0 390.0
398 289.0 447.0
399 179.0 258.0
400 163.0 319.0
401 487.0 96.0
402 362.0 246.0
403 373.0 137.0
404 341.0 473.0
405 358.0 42.0
406 317.0 405.0
407 412.0 227.0
408 432.0 68.0
409 61.0 285.0
410 322.0 42.0
411 157.0 470.0
412 140.0 375.0
413 186.0 351.0
414 224.0 246.0
415 218.0 469.0
416 155.0 363.0
417 248.0 206.0
418 77.0 193.0
419 412.0 71.0
420 358.0 177.0
421 491.0 493.0
422 314.0 282.0
423 377.0 461.0
424 437.0 452.0
425 393.0 187.0
426 417.0 285.0
427 339.0 66.0
428 295.0 20.0
429 90.0 258.0
430 22.0 364.0
431 366.0 450.0
432 75.0 266.0
433 161.0 26.0
434 349.0 86.0
435 391.0 255.0
436 388.0 406.0
437 372.0 281.0
438 194.0 359.0
439 147.0 98.0
440 380.0 235.0
441 386.0 44.0
442 380.0 173.0
443 142.0 437.0
444 131.0 226.0
445 153.0 402.0
446 399.0 335.0
447 442.0 375.0
448 312.0 69.0
449 138.0 118.0
450 432.0 214.0
451 372.0 116.0
452 281.0 209.0
453 400.0 312.0
454 97.0 400.0
455 94.0 270.0
456 418.0 83.0
457 159.0 412.0
458 128.0 484.0
459 297.0 59.0
460 5.0 228.0
461 189.0 459.0
462 379.0 424.0
463 387.0 103.0
464 368.0 31.0
465 390.0 176.0
466 401.0 35.0
467 510.0 445.0
468 236.0 218.0
469 467.0 272.0
470 32.0 240.0
471 355.0 451.0
472 143.0 371.0
473 162.0 17.0
474 142.0 85.0
475 289.0 400.0
476 450.0 44.0
477 195.0 58.0
478 305.0 261.0
479 33.0 350.0
480 359.0 67.0
481 503.0 438.0
482 299.0 98.0
483 122.0 50.0
484 11.0 391.0
485 162.0 191.0
486 169.0 343.0
487 437.0 492.0
488 34.0 204.0
489 323.0 411.0
490 278.0 252.0
491 154.0 504.0
492 184.0 378.0
493 402.0 346.0
494 289.0 442.0
495 357.0 102.0
496 481.0 494.0
497 105.0 243.0
498 463.0 189.0
499 434.0 302.0
500 271.0 104.0
501 338.0 305.0
502 235.0 41.0
503 361.0 53.0
504 62.0 160.0
505 455.0 199.0
506 304.0 131.0
507 407.0 374.0
508 425.0 46.0
509 200.0 420.0
510 475.0 453.0
EOF





